Cost: 359
0-27-8-26-7-23-24-6-0
0-12-17-44-15-33-39-10-30-9-38-0
0-18-4-19-41-13-25-14-0
0-32-2-29-20-3-22-1-0
Cost: 359
0-27-8-26-7-23-24-6-0
0-12-17-44-15-33-39-10-30-9-38-0
0-18-4-19-41-13-25-14-0
0-32-2-29-20-3-22-1-0
Cost: 359
0-27-8-26-7-23-24-6-0
0-12-17-44-15-33-39-10-30-9-38-0
0-18-4-19-41-13-25-14-0
0-32-2-29-20-3-22-1-0
Cost: 359
0-27-8-26-7-23-24-6-0
0-12-17-44-15-33-39-10-30-9-38-0
0-18-4-19-41-13-25-14-0
0-32-2-29-20-3-22-1-0
Cost: 359
0-27-8-26-7-23-24-6-0
0-12-17-44-15-33-39-10-30-9-38-0
0-18-4-19-41-13-25-14-0
0-32-2-29-20-3-22-1-0
Cost: 359
0-27-8-26-7-23-24-6-0
0-12-17-44-15-33-39-10-30-9-38-0
0-18-4-19-41-13-25-14-0
0-32-2-29-20-3-22-1-0
Cost: 359
0-27-8-26-7-23-24-6-0
0-12-17-44-15-33-39-10-30-9-38-0
0-18-4-19-41-13-25-14-0
0-32-2-29-20-3-22-1-0
Cost: 359
0-27-8-26-7-23-24-6-0
0-12-17-44-15-33-39-10-30-9-38-0
0-18-4-19-41-13-25-14-0
0-32-2-29-20-3-22-1-0
Cost: 359
0-27-8-26-7-23-24-6-0
0-12-17-44-15-33-39-10-30-9-38-0
0-18-4-19-41-13-25-14-0
0-32-2-29-20-3-22-1-0
Cost: 359
0-27-8-26-7-23-24-6-0
0-12-17-44-15-33-39-10-30-9-38-0
0-18-4-19-41-13-25-14-0
0-32-2-29-20-3-22-1-0
Cost: 359
0-27-8-26-7-23-24-6-0
0-14-25-13-41-19-4-18-0
0-38-9-30-10-39-33-15-44-17-12-0
0-32-2-29-20-3-22-1-0
Cost: 359
0-27-8-26-7-23-24-6-0
0-14-25-13-41-19-4-18-0
0-38-9-30-10-39-33-15-44-17-12-0
0-32-2-29-20-3-22-1-0
Cost: 359
0-27-8-26-7-23-24-6-0
0-14-25-13-41-19-4-18-0
0-38-9-30-10-39-33-15-44-17-12-0
0-32-2-29-20-3-22-1-0
Cost: 359
0-38-9-30-10-39-33-15-44-17-12-0
0-27-8-26-7-23-24-6-0
0-14-25-13-41-19-4-18-0
0-1-22-3-20-29-2-32-0
Cost: 359
0-27-8-26-7-23-24-6-0
0-14-25-13-41-19-4-18-0
0-38-9-30-10-39-33-15-44-17-12-0
0-32-2-29-20-3-22-1-0
Cost: 359
0-27-8-26-7-23-24-6-0
0-14-25-13-41-19-4-18-0
0-38-9-30-10-39-33-15-44-17-12-0
0-32-2-29-20-3-22-1-0
Cost: 359
0-27-8-26-7-23-24-6-0
0-14-25-13-41-19-4-18-0
0-38-9-30-10-39-33-15-44-17-12-0
0-32-2-29-20-3-22-1-0
Cost: 359
0-32-2-29-20-3-22-1-0
0-38-9-30-10-39-33-15-44-17-12-0
0-27-8-26-7-23-24-6-0
0-18-4-19-41-13-25-14-0
Cost: 359
0-38-9-30-10-39-33-15-44-17-12-0
0-1-22-28-3-20-2-32-0
0-14-25-13-41-19-4-18-0
0-6-24-23-7-26-8-27-0
Cost: 359
0-38-9-30-10-39-33-15-44-17-12-0
0-1-22-28-3-20-2-32-0
0-14-25-13-41-19-4-18-0
0-6-24-23-7-26-8-27-0
Cost: 359
0-6-24-23-7-26-8-27-0
0-32-2-20-3-28-22-1-0
0-14-25-13-41-19-4-18-0
0-38-9-30-10-39-33-15-44-17-12-0
Cost: 359
0-6-24-23-7-26-8-27-0
0-32-2-20-3-28-22-1-0
0-14-25-13-41-19-4-18-0
0-38-9-30-10-39-33-15-44-17-12-0
Cost: 359
0-32-2-20-3-28-22-1-0
0-38-9-30-10-39-33-15-44-17-12-0
0-14-25-13-41-19-4-18-0
0-6-24-23-7-26-8-27-0
Cost: 359
0-6-24-23-7-26-8-27-0
0-32-2-20-3-28-22-1-0
0-14-25-13-41-19-4-18-0
0-38-9-30-10-39-33-15-44-17-12-0
Cost: 359
0-32-2-29-20-3-22-1-0
0-38-9-30-10-39-33-15-44-17-12-0
0-27-8-26-7-23-24-6-0
0-18-4-19-41-13-25-14-0
Cost: 359
0-38-9-30-10-39-33-15-44-17-12-0
0-1-22-28-3-20-2-32-0
0-14-25-13-41-19-4-18-0
0-6-24-23-7-26-8-27-0
Cost: 359
0-27-8-26-7-23-24-6-0
0-1-22-28-3-20-2-32-0
0-38-9-30-10-39-33-15-44-17-12-0
0-14-25-13-41-19-4-18-0
Cost: 359
0-38-9-30-10-39-33-15-44-17-12-0
0-18-4-19-41-13-25-14-0
0-32-2-20-3-28-22-1-0
0-27-8-26-7-23-24-6-0
Cost: 359
0-1-22-28-3-20-2-32-0
0-14-25-13-41-19-4-18-0
0-6-24-23-7-26-8-27-0
0-12-17-44-15-33-39-10-30-9-38-0
Cost: 359
0-12-17-44-15-33-39-10-30-9-38-0
0-14-25-13-41-19-4-18-0
0-1-22-3-20-29-2-32-0
0-6-24-23-7-26-8-27-0
Cost: 359
0-14-25-13-41-19-4-18-0
0-32-2-20-3-28-22-1-0
0-12-17-44-15-33-39-10-30-9-38-0
0-6-24-23-7-26-8-27-0
